(set-info :smt-lib-version 2.6)
(set-logic ALL)
(declare-sort Nat$ 0)
(declare-fun to_int$ (Nat$) Int)
(set-info :source |Generator: Rodin SMT Plug-in|)
(set-info :license "https://creativecommons.org/licenses/by-nc/4.0/")
(set-info :category "industrial")
(set-info :status unsat)
(declare-fun f (Int Int) Bool)
(declare-fun g (Int Int) Bool)
(declare-fun j () Int)
(declare-fun k () Int)
(declare-fun l () Nat$)
(declare-fun n () Int)
(assert (! (exists ((x Int)) (and (exists ((x0 Int)) (and (<= k x0) (<= x0 j) (g x0 x))) (forall ((x1 Int)) (=> (exists ((x2 Int)) (and (<= k x2) (<= x2 j) (g x2 x1))) (<= x x1))) (g (to_int$ (to_int$ l)) x))) :named hyp1))
(assert (! (forall ((x3 Int) (x4 Int)) (=> (and (exists ((x5 Int)) (and (= x5 (+ j 1)) (g x5 x4))) (g (to_int$ (to_int$ l)) x3)) (< x4 x3))) :named hyp2))
(assert (! (not (= k n)) :named hyp3))
(assert (! (not (= j n)) :named hyp4))
(assert (! (< 0 n) :named hyp5))
(assert (! (and (forall ((x6 Int) (x7 Nat$)) (=> (f x6 (to_int$ x7)) (and (<= 1 x6) (<= x6 n) (<= 0 (to_int$ x7))))) (forall ((x8 Int) (x9 Int) (x10 Int)) (=> (and (f x8 x9) (f x8 x10)) (= x9 x10))) (forall ((x11 Int)) (=> (and (<= 1 x11) (<= x11 n)) (exists ((x12 Int)) (f x11 x12)))) (forall ((x13 Int) (x14 Int) (x15 Int)) (=> (and (f x14 x13) (f x15 x13)) (= x14 x15)))) :named hyp6))
(assert (! (forall ((x16 Nat$) (x17 Nat$)) (=> (g (to_int$ x16) (to_int$ x17)) (and (<= 0 (to_int$ x16)) (<= 0 (to_int$ x17))))) :named hyp7))
(assert (! (and (forall ((x18 Int) (x19 Nat$)) (=> (g x18 (to_int$ x19)) (and (<= 1 x18) (<= x18 n) (<= 0 (to_int$ x19))))) (forall ((x20 Int) (x21 Int) (x22 Int)) (=> (and (g x20 x21) (g x20 x22)) (= x21 x22))) (forall ((x23 Int)) (=> (and (<= 1 x23) (<= x23 n)) (exists ((x24 Int)) (g x23 x24)))) (forall ((x25 Int) (x26 Int) (x27 Int)) (=> (and (g x26 x25) (g x27 x25)) (= x26 x27)))) :named hyp8))
(assert (! (forall ((x28 Int)) (= (exists ((x29 Int)) (g x29 x28)) (exists ((x30 Int)) (f x30 x28)))) :named hyp9))
(assert (! (and (<= 1 k) (<= k n)) :named hyp10))
(assert (! (forall ((i Int) (j0 Int)) (=> (and (<= 1 i) (<= i (- k 1)) (<= (+ i 1) j0) (<= j0 n)) (forall ((x31 Int) (x32 Int)) (=> (and (g i x32) (g j0 x31)) (< x32 x31))))) :named hyp11))
(assert (! (<= 0 (to_int$ l)) :named hyp12))
(assert (! (and (<= k j) (<= j n)) :named hyp13))
(assert (! (and (<= k (to_int$ l)) (<= (to_int$ l) j)) :named hyp14))
(assert (! (exists ((x33 Int)) (g (to_int$ (to_int$ l)) x33)) :named hyp15))
(assert (! (forall ((x34 Int) (x35 Int) (x36 Int)) (=> (and (g x34 x35) (g x34 x36)) (= x35 x36))) :named hyp16))
(assert (! (exists ((b Int)) (forall ((x37 Int)) (=> (exists ((x38 Int)) (and (<= k x38) (<= x38 j) (g x38 x37))) (<= b x37)))) :named hyp17))
(assert (! (exists ((x39 Int) (x40 Int)) (and (= x40 (+ j 1)) (g x40 x39))) :named hyp18))
(assert (! (exists ((b0 Int)) (forall ((x41 Int)) (=> (exists ((x42 Int)) (and (<= k x42) (<= x42 (+ j 1)) (g x42 x41))) (<= b0 x41)))) :named hyp19))
(assert (! (forall ((a Int) (b1 Int)) (=> (and (<= 1 a) (<= a n) (<= 1 b1) (<= b1 n) (not (= a b1))) (forall ((x43 Int) (x44 Int)) (= (or (and (g x43 x44) (not (or (exists ((x45 Int)) (and (= x43 a) (g b1 x45))) (exists ((x46 Int)) (and (= x43 b1) (g a x46)))))) (and (= x43 a) (g b1 x44) (not (exists ((x47 Int)) (and (= x43 b1) (g a x47))))) (and (= x43 b1) (g a x44))) (or (and (g x43 x44) (not (or (= x43 a) (= x43 b1)))) (and (= x43 a) (g b1 x44)) (and (= x43 b1) (g a x44))))))) :named hyp20))
(assert (! (forall ((a0 Int) (b2 Int)) (=> (and (<= 1 a0) (<= a0 n) (<= 1 b2) (<= b2 n) (not (= a0 b2))) (and (forall ((x48 Int) (x49 Nat$)) (=> (or (and (= x48 a0) (g b2 (to_int$ x49))) (and (= x48 b2) (g a0 (to_int$ x49)))) (and (<= 1 x48) (<= x48 n) (<= 0 (to_int$ x49))))) (forall ((x50 Int) (x51 Int) (x52 Int)) (=> (and (or (and (= x50 a0) (g b2 x51)) (and (= x50 b2) (g a0 x51))) (or (and (= x50 a0) (g b2 x52)) (and (= x50 b2) (g a0 x52)))) (= x51 x52))) (forall ((x53 Int) (x54 Int) (x55 Int)) (=> (and (or (and (= x54 a0) (g b2 x53)) (and (= x54 b2) (g a0 x53))) (or (and (= x55 a0) (g b2 x53)) (and (= x55 b2) (g a0 x53)))) (= x54 x55)))))) :named hyp21))
(assert (! (forall ((a1 Int) (b3 Int)) (=> (and (<= 1 a1) (<= a1 n) (<= 1 b3) (<= b3 n) (not (= a1 b3))) (and (forall ((x56 Int) (x57 Nat$)) (=> (and (g x56 (to_int$ x57)) (not (or (= x56 a1) (= x56 b3)))) (and (<= 1 x56) (<= x56 n) (<= 0 (to_int$ x57))))) (forall ((x58 Int) (x59 Int) (x60 Int)) (=> (and (g x58 x59) (not (or (= x58 a1) (= x58 b3))) (g x58 x60)) (= x59 x60))) (forall ((x61 Int) (x62 Int) (x63 Int)) (=> (and (g x62 x61) (not (or (= x62 a1) (= x62 b3))) (g x63 x61) (not (or (= x63 a1) (= x63 b3)))) (= x62 x63)))))) :named hyp22))
(assert (! (forall ((a2 Int) (b4 Int)) (=> (and (<= 1 a2) (<= a2 n) (<= 1 b4) (<= b4 n) (not (= a2 b4))) (forall ((x64 Int)) (= (or (exists ((x65 Int)) (and (g x64 x65) (not (or (= x64 a2) (= x64 b4))))) (exists ((x66 Int)) (and (= x64 a2) (g b4 x66))) (exists ((x67 Int)) (and (= x64 b4) (g a2 x67)))) (and (<= 1 x64) (<= x64 n)))))) :named hyp23))
(assert (! (forall ((a3 Int) (b5 Int)) (=> (and (<= 1 a3) (<= a3 n) (<= 1 b5) (<= b5 n) (not (= a3 b5))) (forall ((x68 Int)) (not (and (exists ((x69 Int)) (and (g x69 x68) (not (or (= x69 a3) (= x69 b5))))) (or (g b5 x68) (g a3 x68))))))) :named hyp24))
(assert (! (not (forall ((x70 Int)) (not (and (exists ((x71 Int)) (g x70 x71)) (<= k x70) (<= x70 j))))) :named hyp25))
(assert (! (not (forall ((x72 Int)) (not (and (exists ((x73 Int)) (g x72 x73)) (<= k x72) (<= x72 (+ j 1)))))) :named hyp26))
(assert (! (not (exists ((x74 Int) (x75 Int)) (and (= x74 (+ j 1)) (exists ((x76 Int)) (and (<= k x76) (<= x76 (+ j 1)) (g x76 x75))) (forall ((x77 Int)) (=> (exists ((x78 Int)) (and (<= k x78) (<= x78 (+ j 1)) (g x78 x77))) (<= x75 x77))) (g x74 x75)))) :named goal))
(check-sat)
(exit)
